
Gurobi 6.5.2 (linux64) logging started Mon Aug 29 10:57:51 2016

Optimize a model with 41 rows, 77 columns and 155 nonzeros
Coefficient statistics:
  Matrix range    [1e+00, 2e+00]
  Objective range [1e+00, 1e+02]
  Bounds range    [1e+00, 1e+00]
  RHS range       [1e+00, 1e+00]
Found heuristic solution: objective 1057
Presolve removed 21 rows and 20 columns
Presolve time: 0.00s
Presolved: 20 rows, 57 columns, 114 nonzeros
Variable types: 0 continuous, 57 integer (57 binary)

Root relaxation: objective 8.080000e+02, 26 iterations, 0.00 seconds

    Nodes    |    Current Node    |     Objective Bounds      |     Work
 Expl Unexpl |  Obj  Depth IntInf | Incumbent    BestBd   Gap | It/Node Time

     0     0  808.00000    0    6 1057.00000  808.00000  23.6%     -    0s
H    0     0                     919.0000000  808.00000  12.1%     -    0s
H    0     0                     898.0000000  808.00000  10.0%     -    0s
H    0     0                     862.0000000  808.00000  6.26%     -    0s
H    0     0                     809.0000000  808.00000  0.12%     -    0s

Cutting planes:
  Gomory: 1

Explored 0 nodes (26 simplex iterations) in 0.00 seconds
Thread count was 8 (of 8 available processors)

Optimal solution found (tolerance 1.00e-04)
Best objective 8.090000000000e+02, best bound 8.090000000000e+02, gap 0.0%
